6022 5575 5327 5056 4805 4708 4539 4309 4161 4000 3735 3637 3509 3391 3211 3159 3079 2986 2863 2864 2688 2661 2622 2585 2504 2502 2442 2431 2344 2341 2325 2331 2300 2271 2237 2219 2192 2169 2167 2094 2087 2092 2063 2057 2040 2039 1998 1992 2013 1960 1958 2001 1933 1917 1999 1996 1982 1949 1906 1966 1863 1856 1925 1942 1897 1926 1912 1894 1897 1895 1884 1884 1883 1868 1868 1854 1848 1832 1829 1813 1806 1783 1764 1755 1741 1730 1716 1712 1693 1687 1685 1664 1664 1650 1644 1644 1640 1618 1610 1606 1606 1599 1597 1591 1591 1585 1585 1584 1583 1566 1566 1561 1561 1561 1548 1542 1542 1536 1536 1536 1536 1536 1530 1530 1530 1520 1520 1514 1514 1514 1512 1512 1509 1509 1509 1507 1503 1503 1501 1501 1501 1501 1500 1500 1500 1500 1500 1497 1496 1496 1496 1496 1496 1496 1496 1496 1495 1478 1478 1478 1478 1478 1469 1465 1464 1464 1464 1454 1450 1450 1450 1450 1437 1437 1430 1430 1430 1430 1430 1430 1430 1430 1430 1430 1430 1430 1430 1430 1430 1430 1430 1430 1430 1430 1430 1430 1430 1430 1430 1430 1430 1430 1430 1430 1430 1430 1430 1430 1430 1430 1430 1430 1430 1430 1430 1430 1430 1430 1430 1430 1430 1430 1430 1430 1430 1430 1430 1430 1430 1430 1430 1430 1430 1430 1430 1430 1430 1430 1430 1430 1430 1430 1430 1430 1430 1430 1430 1430 1430 1430 1430 1430 1430 1430 1430 1430 1430 1430 1430 1430 1430 1430 1430 1430 1430 1430 1430 1430 1430 1430 1430 1430 1430 1430 1430 1430 1430 1430 1430 1430 1430 1430 1430 1430 1430 1430 1430 1430 1430 1430 1430 1430 1430 1430 1430 1430 1430 1430 1430 1430 1430 1430 1430 1430 1430 1430 1430 1430 1430 1430 1430 1430 1430 1430 1430 1430 1430 1430 1430 1430 1430 1430 1430 1430 1430 1430 1430 1430 1430 1430 1430 1430 1430 1430 1430 1430 1430 1430 1430 1430 1430 1430 1430 1430 1430 1430 1430 1430 1430 1430 1430 1430 1430 1430 1430 1430 1430 1430 1430 1430 1430 1430 1430 1430 1430 1430 1430 1430 1430 1430 1430 1430 1430 1430 1430 1430 1430 1430 1430 1430 1430 1430 1430 1430 1430 1430 1430 1430 1430 1430 1430 1430 1430 1430 1430 1430 1430 1430 1430 1430 1430 1430 1430 1430 1430 1430 1430 1430 1430 1430 1430 1430 1430 1430 1430 1430 1430 1430 1430 1430 1430 1430 1430 1430 1430 1430 1430 1430 1430 1430 1430 1430 1430 1430 1430 1430 1430 1430 1430 1430 1430 1430 1430 1430 1430 1430 1430 1430 1430 1430 1430 1430 1430 1430 1430 1430 1430 1430 1430 1430 1430 1430 1430 1430 1430 1430 1430 1430 1430 1430 1430 1430 1430 1430 1430 1430 1430 1430 1430 1430 1430 1430 1430 1430 1430 1430 1430 1430 1430 1430 1430 1430 1430 1430 1430 1430 1430 1430 1430 1430 1430 1430 1430 1430 1430 1430 1430 1430 1430 1430 1430 1430 1430 1430 1430 1430 1430 1430 1430 1430 1430 1430 1430 1430 1430 1430 1430 1430 1430 1430 1430 1430 1430 1430 1430 1430 1430 1430 1430 1430 1430 1430 1430 1430 1430 1430 1430 1430 1430 1430 1430 1430 1430 1430 1430 1430 1430 1430 1430 1430 1430 1430 1430 1430 1430 1430 1430 1430 1430 1430 1430 1430 1430 1430 1430 1430 1430 1430 1430 1430 1430 1430 1430 1430 1430 1430 1430 1430 1430 1430 1430 1430 1430 1430 1430 1430 1430 1430 1430 1430 1430 1430 1430 1430 1430 1430 1430 1430 1430 1430 1430 1430 1430 1430 1430 1430 1430 1430 1430 1430 1430 1430 1430 1430 1430 1430 1430 1430 1430 1430 1430 1430 1430 1430 1430 1430 1430 1430 1430 1430 1430 1430 1430 1430 1430 1430 1430 1430 1430 1430 1430 1430 1430 1430 1430 1430 1430 1430 1430 1430 1430 1430 1430 1430 1430 1430 1430 1430 1430 1430 1430 1430 1430 1430 1430 
4028 3581 3327 3059 2820 2709 2542 2312 2164 2010 1747 1637 1540 1429 1249 1197 1117 995 941 869 766 703 666 627 548 544 494 463 427 402 371 351 332 307 277 253 236 235 194 156 156 154 125 124 121 117 110 109 103 100 99 92 90 89 83 80 79 75 74 66 66 66 65 58 56 55 55 55 52 51 51 51 51 15 15 1 1 1 0 0 0 0 0 0 0 0 0 0 0 0 0 0 0 0 0 0 0 0 0 0 0 0 0 0 0 0 0 0 0 0 0 0 0 0 0 0 0 0 0 0 0 0 0 0 0 0 0 0 0 0 0 0 0 0 0 0 0 0 0 0 0 0 0 0 0 0 0 0 0 0 0 0 0 0 0 0 0 0 0 0 0 0 0 0 0 0 0 0 0 0 0 0 0 0 0 0 0 0 0 0 0 0 0 0 0 0 0 0 0 0 0 0 0 0 0 0 0 0 0 0 0 0 0 0 0 0 0 0 0 0 0 0 0 0 0 0 0 0 0 0 0 0 0 0 0 0 0 0 0 0 0 0 0 0 0 0 0 0 0 0 0 0 0 0 0 0 0 0 0 0 0 0 0 0 0 0 0 0 0 0 0 0 0 0 0 0 0 0 0 0 0 0 0 0 0 0 0 0 0 0 0 0 0 0 0 0 0 0 0 0 0 0 0 0 0 0 0 0 0 0 0 0 0 0 0 0 0 0 0 0 0 0 0 0 0 0 0 0 0 0 0 0 0 0 0 0 0 0 0 0 0 0 0 0 0 0 0 0 0 0 0 0 0 0 0 0 0 0 0 0 0 0 0 0 0 0 0 0 0 0 0 0 0 0 0 0 0 0 0 0 0 0 0 0 0 0 0 0 0 0 0 0 0 0 0 0 0 0 0 0 0 0 0 0 0 0 0 0 0 0 0 0 0 0 0 0 0 0 0 0 0 0 0 0 0 0 0 0 0 0 0 0 0 0 0 0 0 0 0 0 0 0 0 0 0 0 0 0 0 0 0 0 0 0 0 0 0 0 0 0 0 0 0 0 0 0 0 0 0 0 0 0 0 0 0 0 0 0 0 0 0 0 0 0 0 0 0 0 0 0 0 0 0 0 0 0 0 0 0 0 0 0 0 0 0 0 0 0 0 0 0 0 0 0 0 0 0 0 0 0 0 0 0 0 0 0 0 0 0 0 0 0 0 0 0 0 0 0 0 0 0 0 0 0 0 0 0 0 0 0 0 0 0 0 0 0 0 0 0 0 0 0 0 0 0 0 0 0 0 0 0 0 0 0 0 0 0 0 0 0 0 0 0 0 0 0 0 0 0 0 0 0 0 0 0 0 0 0 0 0 0 0 0 0 0 0 0 0 0 0 0 0 0 0 0 0 0 0 0 0 0 0 0 0 0 0 0 0 0 0 0 0 0 0 0 0 0 0 0 0 0 0 0 0 0 0 0 0 0 0 0 0 0 0 0 0 0 0 0 0 0 0 0 0 0 0 0 0 0 0 0 0 0 0 0 0 0 0 0 0 0 0 0 0 0 